\ Model Energy_Procurement
\ LP format - for model browsing. Use MPS format to capture full model detail.
\ Signature: 0xd02396d2df7883b6
Minimize
  37.62 x[0] + 44.43 x[1] + 34.76 x[2] + 33.17 x[3] + 40.83 x[4] + 33.5 x[5]
   + 42.73 x[6] + 34.86 x[7] + 36.09 x[8] + 39.16 x[9] + 38.56 x[10]
   + 35.52 x[11] + 41.14 x[12] + 36.05 x[13] + 38.19 x[14] + 35.37 x[15]
   + 44.61 x[16] + 47.87 x[17] + 32.68 x[18] + 44.27 x[19] + 43.97 x[20]
   + 39.71 x[21] + 30.75 x[22] + 32.44 x[23] + 34.61 x[24] + 49.81 x[25]
   + 36.58 x[26] + 44.24 x[27] + 38.97 x[28] + 33.27 x[29] + 48.64 x[30]
   + 35.46 x[31] + 45.75 x[32] + 49.34 x[33] + 28.75 x[34] + 26 x[35]
   + 28.53 x[36] + 25.41 x[37] + 24.15 x[38] + 30.58 x[39] + 29.17 x[40]
   + 34.08 x[41] + 30.74 x[42] + 31.05 x[43] + 30.2 x[44] + 24.67 x[45]
   + 24.36 x[46] + 34.63 x[47] + 35.46 x[48] + 35.01 x[49] + 29.98 x[50]
   + 25.56 x[51] + 23.81 x[52] + 29.03 x[53] + 36.59 x[54] + 34.55 x[55]
   + 26.07 x[56] + 31.4 x[57] + 36.24 x[58] + 29.66 x[59] + 34.36 x[60]
   + 25.14 x[61] + 35.69 x[62] + 28.79 x[63] + 31.47 x[64] + 25.05 x[65]
   + 35.84 x[66] + 30.61 x[67] + 29.38 x[68] + 36.09 x[69] + 36.45 x[70]
   + 30 x[71] + 35.52 x[72] + 30.89 x[73] + 34.43 x[74] + 28.78 x[75]
   + 28.61 x[76] + 30.13 x[77] + 25.23 x[78] + 29.34 x[79] + 35.83 x[80]
   + 30.34 x[81] + 29.24 x[82] + 30.77 x[83] + 24.04 x[84] + 34.69 x[85]
   + 30.83 x[86] + 31.29 x[87] + 34.75 x[88] + 35.89 x[89] + 19.5 x[90]
   + 25.82 x[91] + 25.99 x[92] + 23.78 x[93] + 29.97 x[94] + 19.66 x[95]
   + 24.68 x[96] + 32.65 x[97] + 32.04 x[98] + 23.96 x[99] + 25.15 x[100]
   + 26.02 x[101] + 18.74 x[102] + 18.69 x[103] + 18.04 x[104]
   + 19.03 x[105] + 25.21 x[106] + 30.86 x[107] + 25.92 x[108]
   + 26.16 x[109] + 19.63 x[110] + 19.48 x[111] + 26.23 x[112]
   + 18.85 x[113] + 31.32 x[114] + 25.49 x[115] + 25.32 x[116] + 26 x[117]
   + 18.34 x[118] + 32.47 x[119] + 25.3 x[120] + 24.22 x[121]
   + 24.63 x[122] + 23.94 x[123] + 32.77 x[124] + 25.09 x[125]
   + 25.78 x[126] + 24.16 x[127] + 32.26 x[128] + 31.96 x[129]
   + 24.8 x[130]
Subject To
 demand: 45 x[0] + 55 x[1] + 45 x[2] + 40 x[3] + 50 x[4] + 40 x[5]
   + 55 x[6] + 45 x[7] + 45 x[8] + 50 x[9] + 50 x[10] + 45 x[11] + 50 x[12]
   + 45 x[13] + 50 x[14] + 45 x[15] + 55 x[16] + 60 x[17] + 40 x[18]
   + 55 x[19] + 55 x[20] + 50 x[21] + 40 x[22] + 40 x[23] + 45 x[24]
   + 60 x[25] + 45 x[26] + 55 x[27] + 50 x[28] + 40 x[29] + 60 x[30]
   + 45 x[31] + 55 x[32] + 60 x[33] + 30 x[34] + 25 x[35] + 30 x[36]
   + 25 x[37] + 25 x[38] + 30 x[39] + 30 x[40] + 35 x[41] + 30 x[42]
   + 30 x[43] + 30 x[44] + 25 x[45] + 25 x[46] + 35 x[47] + 35 x[48]
   + 35 x[49] + 30 x[50] + 25 x[51] + 25 x[52] + 30 x[53] + 35 x[54]
   + 35 x[55] + 25 x[56] + 30 x[57] + 35 x[58] + 30 x[59] + 35 x[60]
   + 25 x[61] + 35 x[62] + 30 x[63] + 30 x[64] + 25 x[65] + 35 x[66]
   + 30 x[67] + 30 x[68] + 35 x[69] + 35 x[70] + 30 x[71] + 35 x[72]
   + 30 x[73] + 35 x[74] + 30 x[75] + 30 x[76] + 30 x[77] + 25 x[78]
   + 30 x[79] + 35 x[80] + 30 x[81] + 30 x[82] + 30 x[83] + 25 x[84]
   + 35 x[85] + 30 x[86] + 30 x[87] + 35 x[88] + 35 x[89] + 15 x[90]
   + 20 x[91] + 20 x[92] + 20 x[93] + 25 x[94] + 15 x[95] + 20 x[96]
   + 25 x[97] + 25 x[98] + 20 x[99] + 20 x[100] + 20 x[101] + 15 x[102]
   + 15 x[103] + 15 x[104] + 15 x[105] + 20 x[106] + 25 x[107] + 20 x[108]
   + 20 x[109] + 15 x[110] + 15 x[111] + 20 x[112] + 15 x[113] + 25 x[114]
   + 20 x[115] + 20 x[116] + 20 x[117] + 15 x[118] + 25 x[119] + 20 x[120]
   + 20 x[121] + 20 x[122] + 20 x[123] + 25 x[124] + 20 x[125] + 20 x[126]
   + 20 x[127] + 25 x[128] + 25 x[129] + 20 x[130] >= 200
Bounds
Generals
 x[0] x[1] x[2] x[3] x[4] x[5] x[6] x[7] x[8] x[9] x[10] x[11] x[12] x[13]
 x[14] x[15] x[16] x[17] x[18] x[19] x[20] x[21] x[22] x[23] x[24] x[25]
 x[26] x[27] x[28] x[29] x[30] x[31] x[32] x[33] x[34] x[35] x[36] x[37]
 x[38] x[39] x[40] x[41] x[42] x[43] x[44] x[45] x[46] x[47] x[48] x[49]
 x[50] x[51] x[52] x[53] x[54] x[55] x[56] x[57] x[58] x[59] x[60] x[61]
 x[62] x[63] x[64] x[65] x[66] x[67] x[68] x[69] x[70] x[71] x[72] x[73]
 x[74] x[75] x[76] x[77] x[78] x[79] x[80] x[81] x[82] x[83] x[84] x[85]
 x[86] x[87] x[88] x[89] x[90] x[91] x[92] x[93] x[94] x[95] x[96] x[97]
 x[98] x[99] x[100] x[101] x[102] x[103] x[104] x[105] x[106] x[107] x[108]
 x[109] x[110] x[111] x[112] x[113] x[114] x[115] x[116] x[117] x[118]
 x[119] x[120] x[121] x[122] x[123] x[124] x[125] x[126] x[127] x[128]
 x[129] x[130]
End
